40
raw_data/mm-rcpsp/MMLIB50/J508_5.mm
Time limit set to 60 seconds
Running CP solver
/home/omastto1/General-Optimization-Solver/src/solvers/mmrcpsp.py:42(stream:276:6): Warning: Cumulative expression 'pulse': height is zero, expression is zero everywhere.
                                                                                               VarCumulAtom_419 = pulse(task_0_mode_0, 0)
/home/omastto1/General-Optimization-Solver/src/solvers/mmrcpsp.py:42(stream:276:3908): Warning: Cumulative expression 'pulse': height is zero, expression is zero everywhere.
                                                                                                  VarCumulAtom_570 = pulse(task_51_mode_0, 0)
/home/omastto1/General-Optimization-Solver/src/solvers/mmrcpsp.py:42(stream:277:6): Warning: Cumulative expression 'pulse': height is zero, expression is zero everywhere.
                                                                                               VarCumulAtom_574 = pulse(task_0_mode_0, 0)
/home/omastto1/General-Optimization-Solver/src/solvers/mmrcpsp.py:42(stream:277:3907): Warning: Cumulative expression 'pulse': height is zero, expression is zero everywhere.
                                                                                                  VarCumulAtom_725 = pulse(task_51_mode_0, 0)
 ! --------------------------------------------------- CP Optimizer 20.1.0.0 --
 ! Minimization problem - 205 variables, 265 constraints
 ! TimeLimit            = 60
 ! Workers              = 14
 ! LogVerbosity         = Terse
 ! Initial process time : 0.00s (0.00s extraction + 0.00s propagation)
 !  . Log search space  : 517.0 (before), 517.0 (after)
 !  . Memory usage      : 1.3 MB (before), 1.3 MB (after)
 ! Using parallel search with 14 workers.
 ! ----------------------------------------------------------------------------
 !          Best Branches  Non-fixed    W       Branch decision
                        0        205                 -
 + New bound is 23
 ! Using iterative diving.
 ! Using temporal relaxation.
 *            63      109  0.84s        1      (gap is 63.49%)
 *            61      350  0.84s        1      (gap is 62.30%)
 *            58      854  0.84s        1      (gap is 60.34%)
 *            57     1263  0.84s        1      (gap is 59.65%)
 *            56     1399  0.84s        3      (gap is 58.93%)
 *            55     4036  1.55s        1      (gap is 58.18%)
 *            54     2697  1.55s        3      (gap is 57.41%)
              54     1893          2    5   F        -
 + New bound is 24 (gap is 55.56%)
 *            53     2828  1.55s        9      (gap is 54.72%)
 *            52     4691  2.32s        8      (gap is 53.85%)
 *            50     5245  2.32s        8      (gap is 52.00%)
 *            49    11044  3.08s        6      (gap is 51.02%)
 *            48    18049  5.30s        9      (gap is 50.00%)
 *            47    19696  5.30s        3      (gap is 48.94%)
 ! Using failure-directed search.
 *            46    29963  7.53s        9      (gap is 47.83%)
              46    24601          2    1   F    30 >= cost
 + New bound is 25 (gap is 45.65%)
              46    25053        135    1   F    30 >= cost
 + New bound is 26 (gap is 43.48%)
 *            45    47108  11.13s       9      (gap is 42.22%)
 *            44    66005  17.82s       5      (gap is 40.91%)
 ! Time = 17.82s, Average fail depth = 36, Memory usage = 19.8 MB
 ! Current bound is 26 (gap is 40.91%)
 !          Best Branches  Non-fixed    W       Branch decision
 ! ----------------------------------------------------------------------------
 ! Search terminated by limit, 16 solutions found.
 ! Best objective         : 44 (gap is 40.91%)
 ! Best bound             : 26
 ! ----------------------------------------------------------------------------
 ! Number of branches     : 5452536
 ! Number of fails        : 1078133
 ! Total memory usage     : 20.2 MB (20.0 MB CP Optimizer + 0.2 MB Concert)
 ! Time spent in solve    : 60.03s (60.03s engine + 0.00s extraction)
 ! Search speed (br. / s) : 90845.3
 ! ----------------------------------------------------------------------------
task_0: (start=0, end=0, size=0, length=0)
Task 0 is scheduled in mode 0 from 0 to 0
task_1: (start=2, end=11, size=9, length=9)
Task 1 is scheduled in mode 2 from 2 to 11
task_2: (start=4, end=10, size=6, length=6)
Task 2 is scheduled in mode 0 from 4 to 10
task_3: (start=0, end=2, size=2, length=2)
Task 3 is scheduled in mode 0 from 0 to 2
task_4: (start=1, end=6, size=5, length=5)
Task 4 is scheduled in mode 0 from 1 to 6
task_5: (start=6, end=10, size=4, length=4)
Task 5 is scheduled in mode 2 from 6 to 10
task_6: (start=0, end=2, size=2, length=2)
Task 6 is scheduled in mode 1 from 0 to 2
task_7: (start=0, end=4, size=4, length=4)
Task 7 is scheduled in mode 0 from 0 to 4
task_8: (start=1, end=11, size=10, length=10)
Task 8 is scheduled in mode 2 from 1 to 11
task_9: (start=10, end=11, size=1, length=1)
Task 9 is scheduled in mode 0 from 10 to 11
task_10: (start=0, end=1, size=1, length=1)
Task 10 is scheduled in mode 0 from 0 to 1
task_11: (start=11, end=20, size=9, length=9)
Task 11 is scheduled in mode 2 from 11 to 20
task_12: (start=1, end=11, size=10, length=10)
Task 12 is scheduled in mode 2 from 1 to 11
task_13: (start=6, end=11, size=5, length=5)
Task 13 is scheduled in mode 1 from 6 to 11
task_14: (start=0, end=1, size=1, length=1)
Task 14 is scheduled in mode 0 from 0 to 1
task_15: (start=10, end=19, size=9, length=9)
Task 15 is scheduled in mode 2 from 10 to 19
task_16: (start=11, end=21, size=10, length=10)
Task 16 is scheduled in mode 2 from 11 to 21
task_17: (start=2, end=12, size=10, length=10)
Task 17 is scheduled in mode 2 from 2 to 12
task_18: (start=11, end=20, size=9, length=9)
Task 18 is scheduled in mode 2 from 11 to 20
task_19: (start=19, end=22, size=3, length=3)
Task 19 is scheduled in mode 0 from 19 to 22
task_20: (start=2, end=6, size=4, length=4)
Task 20 is scheduled in mode 1 from 2 to 6
task_21: (start=12, end=20, size=8, length=8)
Task 21 is scheduled in mode 2 from 12 to 20
task_22: (start=21, end=27, size=6, length=6)
Task 22 is scheduled in mode 2 from 21 to 27
task_23: (start=20, end=25, size=5, length=5)
Task 23 is scheduled in mode 2 from 20 to 25
task_24: (start=14, end=21, size=7, length=7)
Task 24 is scheduled in mode 1 from 14 to 21
task_25: (start=11, end=20, size=9, length=9)
Task 25 is scheduled in mode 2 from 11 to 20
task_26: (start=20, end=28, size=8, length=8)
Task 26 is scheduled in mode 2 from 20 to 28
task_27: (start=12, end=14, size=2, length=2)
Task 27 is scheduled in mode 0 from 12 to 14
task_28: (start=29, end=32, size=3, length=3)
Task 28 is scheduled in mode 0 from 29 to 32
task_29: (start=22, end=29, size=7, length=7)
Task 29 is scheduled in mode 2 from 22 to 29
task_30: (start=28, end=36, size=8, length=8)
Task 30 is scheduled in mode 1 from 28 to 36
task_31: (start=32, end=36, size=4, length=4)
Task 31 is scheduled in mode 1 from 32 to 36
task_32: (start=32, end=42, size=10, length=10)
Task 32 is scheduled in mode 2 from 32 to 42
task_33: (start=20, end=30, size=10, length=10)
Task 33 is scheduled in mode 2 from 20 to 30
task_34: (start=11, end=12, size=1, length=1)
Task 34 is scheduled in mode 0 from 11 to 12
task_35: (start=30, end=32, size=2, length=2)
Task 35 is scheduled in mode 0 from 30 to 32
task_36: (start=36, end=44, size=8, length=8)
Task 36 is scheduled in mode 2 from 36 to 44
task_37: (start=32, end=37, size=5, length=5)
Task 37 is scheduled in mode 0 from 32 to 37
task_38: (start=32, end=41, size=9, length=9)
Task 38 is scheduled in mode 2 from 32 to 41
task_39: (start=41, end=44, size=3, length=3)
Task 39 is scheduled in mode 0 from 41 to 44
task_40: (start=43, end=44, size=1, length=1)
Task 40 is scheduled in mode 0 from 43 to 44
task_41: (start=36, end=43, size=7, length=7)
Task 41 is scheduled in mode 1 from 36 to 43
task_42: (start=27, end=30, size=3, length=3)
Task 42 is scheduled in mode 2 from 27 to 30
task_43: (start=37, end=44, size=7, length=7)
Task 43 is scheduled in mode 0 from 37 to 44
task_44: (start=20, end=21, size=1, length=1)
Task 44 is scheduled in mode 0 from 20 to 21
task_45: (start=22, end=30, size=8, length=8)
Task 45 is scheduled in mode 2 from 22 to 30
task_46: (start=30, end=35, size=5, length=5)
Task 46 is scheduled in mode 2 from 30 to 35
task_47: (start=22, end=32, size=10, length=10)
Task 47 is scheduled in mode 2 from 22 to 32
task_48: (start=21, end=22, size=1, length=1)
Task 48 is scheduled in mode 0 from 21 to 22
task_49: (start=22, end=30, size=8, length=8)
Task 49 is scheduled in mode 2 from 22 to 30
task_50: (start=32, end=41, size=9, length=9)
Task 50 is scheduled in mode 2 from 32 to 41
task_51: (start=44, end=44, size=0, length=0)
Task 51 is scheduled in mode 0 from 44 to 44
Feasible solution found
Objective value: 44
Solution is 69.2 % worse than the lower bound.
